Si Li Si Al O  Si O  Si Al O 
 1.0000000000000000
     5.5655414159475960    0.0000000000000000    0.0000000000000000
    -2.6502482833063286    7.1074941556159192    0.0000000000000000
    -1.0461865115695803   -2.4530172769524832    6.9712503899192297
 Si  Li  Si  Al  O   Si  O   Si  Al  O  
   1   2   1   1   3   1   1   1   1   8
Cartesian
 -0.4097971179343348 -0.1729537382998137  5.4612999875000225
  2.7149285949834034  0.2122542884341173  6.4428117317484039
  0.4884344754452127  6.2845612309563359  1.4374062036782003
  0.6999677100287131 -0.4380570238451386  2.4230211970950051
  1.3333872074255630  4.1823831479609117  6.5290614059902996
  0.1512452147990857 -0.3031252077379247  3.9433732842163023
  0.5800818988188007  3.3071970003030007  1.9258999908937431
 -1.3477950410203356  1.1922492233677229  5.5672718509601484
 -1.4354566097711752  2.8381454956756240  5.4648069670424517
  4.0402105362655201 -1.2889605403097795  5.8798766942396057
 -0.9203199078314790  3.6592559984133524  2.4235048610982499
  1.8775740331801065  2.3165942391478120  1.3594480013888404
  2.6301857147576713  3.1967167816629547  5.9577017227205120
  3.5057637853921917  2.9806209167272524  1.4567764483854782
 -1.1736449535531774  3.2524122955940413  3.9442816085385473
  1.8153308914415005  0.6816359036713324  2.0075209923142063
  5.0424983891942690 -0.4543912267914285  1.3581733971534846
  0.8111255343089345 -0.1530052391072415  6.5270365823753407
 -1.0120368773352528  5.3042314694730406  2.3189108583209066
 -0.2943447041206237  3.5147407333717915  6.4291419908731857
