Li2 Al2 Si8 O20
1.0
   7.6280971404645292    0.0000000000000000    0.0000000000000000
   0.0000000000000000    5.1395999999999997    0.0000000000000000
  -4.6001298521474627    0.0000000000000000   10.8136121302449979
Li Al Si O
2 2 8 20
direct
   0.5000000000000000    0.7580000000000000    0.2500000000000000 Li+
   0.5000000000000000    0.2420000000000000    0.7500000000000000 Li+
   0.5000000000000000    0.2560000000000001    0.2500000000000000 Al3+
   0.5000000000000000    0.7439999999999999    0.7500000000000000 Al3+
   0.2113000000000002    0.0125000000000002    0.5025000000000001 Si4+
   0.7886999999999998    0.0125000000000002    0.9974999999999999 Si4+
   0.7886999999999998    0.9874999999999998    0.4974999999999999 Si4+
   0.2113000000000002    0.9874999999999998    0.0024999999999999 Si4+
   0.2100000000000002    0.5097000000000002    0.3522000000000000 Si4+
   0.7899999999999998    0.5097000000000002    0.1478000000000000 Si4+
   0.7899999999999998    0.4902999999999998    0.6478000000000000 Si4+
   0.2100000000000002    0.4902999999999998    0.8522000000000000 Si4+
   0.3676000000000001    0.9635000000000000    0.6398000000000001 O2-
   0.6323999999999999    0.9635000000000000    0.8601999999999999 O2-
   0.6323999999999999    0.0365000000000000    0.3601999999999999 O2-
   0.3676000000000001    0.0365000000000000    0.1398000000000001 O2-
   0.2314000000000003    0.8011000000000000    0.4074000000000003 O2-
   0.7685999999999997    0.8011000000000000    0.0925999999999997 O2-
   0.7685999999999997    0.1989000000000000    0.5925999999999997 O2-
   0.2314000000000003    0.1989000000000000    0.9074000000000003 O2-
   0.0000000000000000    0.0000000000000000    0.5000000000000000 O2-
   0.0000000000000000    0.0000000000000000    0.0000000000000000 O2-
   0.2461000000000001    0.3020000000000002    0.4605000000000000 O2-
   0.7538999999999999    0.3020000000000002    0.0395000000000000 O2-
   0.7538999999999999    0.6979999999999998    0.5395000000000000 O2-
   0.2461000000000001    0.6979999999999998    0.9605000000000000 O2-
   0.0000000000000000    0.4641000000000001    0.2500000000000000 O2-
   0.0000000000000000    0.5358999999999999    0.7500000000000000 O2-
   0.3635000000000002    0.4764000000000000    0.2915000000000001 O2-
   0.6364999999999998    0.4764000000000000    0.2084999999999999 O2-
   0.6364999999999998    0.5236000000000000    0.7084999999999999 O2-
   0.3635000000000002    0.5236000000000000    0.7915000000000001 O2-
