Li1 Al1 Si4 O10
1.0
   5.2258549897083268    0.0000000000000000    0.0000000000000000
  -0.0079725894106321    5.9741899214529495    0.0000000000000000
  -0.0644438808629273   -2.9812165631970693    7.0731044517495389
Li Al Si O
1 1 4 10
direct
   0.5377844572067261    0.2981017827987671    0.1947169899940490 Li
   0.0354634746909142    0.2997787594795227    0.1984617114067077 Al
   0.7582244277000427    0.7919507324695587    0.4897637963294982 Si
   0.2678342759609222    0.0888366699218749    0.4870851635932921 Si
   0.3124826550483704    0.4990524649620056    0.9052053689956664 Si
   0.8048826456069946    0.7979451715946198    0.9078135266900061 Si
   0.2546244561672211    0.3819549083709717    0.0598281621932984 O
   0.8155258893966675    0.5198767781257629    0.3342615365982055 O
   0.2645448446273804    0.2106067538261414    0.3300075531005858 O
   0.3429321944713593    0.2890456318855286    0.6926334500312804 O
   0.9850257039070129    0.9775081444531679    0.4896519780158995 O
   0.8099989295005798    0.0760402679443359    0.0662738084793092 O
   0.7295426130294800    0.7942912578582764    0.7023717761039733 O
   0.0875536501407623    0.6845705509185791    0.9036535769701003 O
   0.5874289870262146    0.6431649923324585    0.9652235768735408 O
   0.4846960604190826    0.8757591918110847    0.4306884407997130 O
