Li1 Al1 Si4 O10
1.0
   5.2258549897083268   -0.0000000000000000   -0.0000000000000000
   0.0079725894106321   -5.9741899214529495   -0.0000000000000000
   0.0644438808629273    2.9812165631970693   -7.0731044517495389
Li Al Si O
1 1 4 10
direct
   0.5377844572067260    0.7018982172012329    0.8052830100059509 Li
   0.0354634746909142    0.7002212405204773    0.8015382885932923 Al
   0.7582244277000428    0.2080492675304413    0.5102362036705018 Si
   0.2678342759609222    0.9111633300781251    0.5129148364067080 Si
   0.3124826550483704    0.5009475350379944    0.0947946310043336 Si
   0.8048826456069944    0.2020548284053802    0.0921864733099939 Si
   0.2546244561672211    0.6180450916290283    0.9401718378067015 O
   0.8155258893966676    0.4801232218742372    0.6657384634017945 O
   0.2645448446273803    0.7893932461738586    0.6699924468994142 O
   0.3429321944713593    0.7109543681144714    0.3073665499687196 O
   0.9850257039070129    0.0224918555468322    0.5103480219841005 O
   0.8099989295005798    0.9239597320556641    0.9337261915206908 O
   0.7295426130294800    0.2057087421417236    0.2976282238960267 O
   0.0875536501407623    0.3154294490814209    0.0963464230298998 O
   0.5874289870262145    0.3568350076675415    0.0347764231264592 O
   0.4846960604190828    0.1242408081889153    0.5693115592002870 O
